decision_x1=[0,2];
decision_x2=[0,2];
decision_x3=[0,2];
decision_x4=[0,2];
decision_x5=[0,2];
decision_x6=[0,2];
random_y1=[0,2];
random_y2=[0,2];
constraint_x4_x2=[
0,0,3.7|
0,1,3.6|
0,2,1.7|
1,0,1.2|
1,1,4.3|
1,2,4.7|
2,0,4.1|
2,1,7.2|
2,2,0.32|
];
constraint_x4_x3=[
0,0,3.1|
0,1,5.8|
0,2,5.7|
1,0,5.4|
1,1,5.8|
1,2,9.7|
2,0,9.7|
2,1,9.6|
2,2,0.98|
];
constraint_x5_x2=[
0,0,4.6|
0,1,6.1|
0,2,9.7|
1,0,2.3|
1,1,1.1|
1,2,3.8|
2,0,0.87|
2,1,8.8|
2,2,1.9|
];
constraint_x5_x3=[
0,0,1.9|
0,1,8.2|
0,2,6.9|
1,0,8|
1,1,5|
1,2,7.7|
2,0,8.9|
2,1,8.3|
2,2,4.7|
];
constraint_x6_x1=[
0,0,7.3|
0,1,1.6|
0,2,0.9|
1,0,6.1|
1,1,2.6|
1,2,6.6|
2,0,4.3|
2,1,8|
2,2,2.5|
];
constraint_x6_x3=[
0,0,8.6|
0,1,0.48|
0,2,10|
1,0,8.3|
1,1,9.7|
1,2,7.6|
2,0,5|
2,1,7.4|
2,2,3.1|
];
constraint_x6_x4=[
0,0,9.5|
0,1,2.2|
0,2,8.7|
1,0,2.6|
1,1,1.3|
1,2,0.7|
2,0,3.6|
2,1,7|
2,2,5.5|
];
constraint_x6_x5=[
0,0,8.8|
0,1,4.9|
0,2,9.4|
1,0,4.7|
1,1,9.4|
1,2,2.3|
2,0,7.8|
2,1,8.5|
2,2,3.5|
];
constraint_x1_y1=[
0,0,9.6|
0,1,0.35|
0,2,3.5|
1,0,6.8|
1,1,9.3|
1,2,7.9|
2,0,0.45|
2,1,4.2|
2,2,1.7|
];
constraint_x2_y2=[
0,0,8.7|
0,1,6.3|
0,2,2.3|
1,0,1.8|
1,1,7.8|
1,2,4.3|
2,0,4.8|
2,1,6|
2,2,0.91|
];
initial_distribution_y1=[0.47,0.47,0.066];
initial_distribution_y2=[0.23,0.36,0.41];
transition_y1=[
0.36,0.55,0.093|
0.25,0.35,0.4|
0.29,0.68,0.035|
];
transition_y2=[
0.42,0.086,0.49|
0.047,0.39,0.56|
0.39,0.33,0.28|
];
